p cnf 32 25
-940 -5206
-1160 -3679
-2687 -3808
-2757 -4490
-2757 -6117
-2757 -6371
-3048 -5422
-3679 -3906
-3808 -5911
-3906 -7482
-3906 -9956
-4133 -10336
-4970 -5555
-5555 -7053
-5911 -7482
-5911 -10336
-6316 -8406
-6985 -7264
-6985 -7482
-6985 -7977
-7053 -8021
-7191 -9189
-7290 -9850
-9406 -10336
-9850 -9956

